
Gurobi 9.1.2 (win64, Java) logging started Thu Nov 11 17:57:40 2021

Academic license - for non-commercial use only - expires 2022-10-30
Gurobi Optimizer version 9.1.2 build v9.1.2rc0 (win64)
Thread count: 6 physical cores, 12 logical processors, using up to 12 threads
Optimize a model with 50 rows, 400 columns and 800 nonzeros
Model fingerprint: 0xdb660b3f
Variable types: 0 continuous, 400 integer (400 binary)
Coefficient statistics:
  Matrix range     [1e+00, 1e+03]
  Objective range  [1e+01, 9e+02]
  Bounds range     [1e+00, 1e+00]
  RHS range        [1e+00, 2e+03]
Found heuristic solution: objective 12554.000000
Presolve removed 0 rows and 81 columns
Presolve time: 0.00s
Presolved: 50 rows, 319 columns, 638 nonzeros
Variable types: 0 continuous, 319 integer (319 binary)
Presolved: 50 rows, 319 columns, 638 nonzeros


Root relaxation: objective 1.655965e+04, 84 iterations, 0.00 seconds

    Nodes    |    Current Node    |     Objective Bounds      |     Work
 Expl Unexpl |  Obj  Depth IntInf | Incumbent    BestBd   Gap | It/Node Time

     0     0 16559.6484    0   15 12554.0000 16559.6484  31.9%     -    0s
H    0     0                    15841.000000 16559.6484  4.54%     -    0s
H    0     0                    15979.000000 16559.6484  3.63%     -    0s
H    0     0                    16041.000000 16559.6484  3.23%     -    0s
H    0     0                    16057.000000 16559.6484  3.13%     -    0s
     0     0 16530.9677    0   30 16057.0000 16530.9677  2.95%     -    0s
H    0     0                    16098.000000 16530.9677  2.69%     -    0s
H    0     0                    16135.000000 16530.9677  2.45%     -    0s
     0     0 16530.9677    0   31 16135.0000 16530.9677  2.45%     -    0s
     0     0 16519.5799    0   40 16135.0000 16519.5799  2.38%     -    0s
H    0     0                    16150.000000 16519.5799  2.29%     -    0s
H    0     0                    16187.000000 16519.5799  2.05%     -    0s
     0     0 16519.5799    0   32 16187.0000 16519.5799  2.05%     -    0s
H    0     0                    16314.000000 16519.5799  1.26%     -    0s
     0     0 16519.5799    0   36 16314.0000 16519.5799  1.26%     -    0s
     0     0 16519.5799    0   13 16314.0000 16519.5799  1.26%     -    0s
     0     0 16519.5799    0   12 16314.0000 16519.5799  1.26%     -    0s
H    0     0                    16355.000000 16519.5799  1.01%     -    0s
     0     0 16515.7752    0   21 16355.0000 16515.7752  0.98%     -    0s
     0     0 16515.7752    0   24 16355.0000 16515.7752  0.98%     -    0s
H    0     0                    16510.000000 16515.7752  0.03%     -    0s
     0     0 16510.0000    0   29 16510.0000 16510.0000  0.00%     -    0s

Cutting planes:
  Gomory: 6
  Cover: 16
  Clique: 2
  MIR: 8
  StrongCG: 8
  RLT: 6

Explored 1 nodes (884 simplex iterations) in 0.11 seconds
Thread count was 12 (of 12 available processors)

Solution count 10: 16510 16355 16314 ... 15979

Optimal solution found (tolerance 1.00e-12)
Best objective 1.651000000000e+04, best bound 1.651000000000e+04, gap 0.0000%
